CMPL model generation - running

CMPL version: 1.11.0
Authors: Thomas Schleiff, Mike Steglich
Distributed under the GPLv3 

create model instance ...
write model instance ...
CMPL model generation - finished

Solver - running


Welcome to IBM(R) ILOG(R) CPLEX(R) Interactive Optimizer 12.7.1.0
  with Simplex, Mixed Integer & Barrier Optimizers
5725-A06 5725-A29 5724-Y48 5724-Y49 5724-Y54 5724-Y55 5655-Y21
Copyright IBM Corp. 1988, 2017.  All Rights Reserved.

Type 'help' for a list of available commands.
Type 'help' followed by a command name for more
information on commands.

CPLEX> Specified objective sense: MINIMIZE
Selected objective  name:  line[1]
Selected RHS        name:  RHS
Selected bound      name:  BOUND
Problem '/tmp/cmpl.T23697.mps' read.
Read time = 0.07 sec. (8.16 ticks)
CPLEX> CPXPARAM_Read_APIEncoding                        "UTF-8"
Tried aggregator 3 times.
MIP Presolve eliminated 19294 rows and 30801 columns.
MIP Presolve modified 340 coefficients.
Aggregator did 586 substitutions.
Reduced MIP has 2475 rows, 3206 columns, and 9374 nonzeros.
Reduced MIP has 3038 binaries, 0 generals, 0 SOSs, and 0 indicators.
Presolve time = 0.05 sec. (41.69 ticks)
Found incumbent of value 404.312721 after 0.09 sec. (63.11 ticks)
Probing fixed 4 vars, tightened 0 bounds.
Probing time = 0.01 sec. (4.10 ticks)
Tried aggregator 1 time.
MIP Presolve eliminated 0 rows and 4 columns.
MIP Presolve modified 14 coefficients.
Reduced MIP has 2475 rows, 3202 columns, and 9366 nonzeros.
Reduced MIP has 3202 binaries, 0 generals, 0 SOSs, and 0 indicators.
Presolve time = 0.01 sec. (7.98 ticks)
Probing time = 0.01 sec. (2.67 ticks)
Clique table members: 5773.
MIP emphasis: balance optimality and feasibility.
MIP search method: dynamic search.
Parallel mode: none, using 1 thread.
Root relaxation solution time = 0.00 sec. (4.33 ticks)

        Nodes                                         Cuts/
   Node  Left     Objective  IInf  Best Integer    Best Bound    ItCnt     Gap

*     0+    0                          404.3127      -26.2275           106.49%
      0     0       53.5682    13      404.3127       53.5682       84   86.75%
*     0+    0                           73.5224       53.5682            27.14%
*     0+    0                           53.9396       53.5682             0.69%
*     0     0      integral     0       53.9126      Cuts: 12       88    0.00%
      0     0        cutoff             53.9126       53.9126       88    0.00%
Elapsed time = 0.16 sec. (101.33 ticks, tree = 0.01 MB, solutions = 4)

Clique cuts applied:  3
Cover cuts applied:  6
Gomory fractional cuts applied:  3

Root node processing (before b&c):
  Real time             =    0.16 sec. (103.05 ticks)
Sequential b&c:
  Real time             =    0.00 sec. (0.00 ticks)
                          ------------
Total (root+branch&cut) =    0.16 sec. (103.05 ticks)

Solution pool: 4 solutions saved.

MIP - Integer optimal solution:  Objective =  5.3912589000e+01
Solution time =    0.16 sec.  Iterations = 88  Nodes = 0
Deterministic time = 103.15 ticks  (634.37 ticks/sec)

CPLEX> Incumbent solution written to file '/tmp/cmpl.T23697.gsol'.
CPLEX> 
CMPL: Time used for model generation: 1 seconds
CMPL: Time used for solving the model: 1 seconds


Solution written to ASCII file: results/output_generated_conf_0.2/2017-02-06-4/fair-nonlinear.sol

Solver - finished
